c FILE /home/rafael/Documents/HappySet/MIHS/inputs/happygen/output/graph_scale_free_k2_p0.1_v100_20241127_083751.txt
c SOURCE This is a scale-free graph formed for the happy graph colouring problem.
c DESCRIPTION It was generated using the problem generator of Rhyd Lewis
c
c GRAPH STATS
c Seed                             = -359161707
c Number of Nodes                  = 100
c Number of colours k              = 2
c Number of pre-assignments        = 10
c Number of links per new node     = 5
c Density                          = 0.0979798
c 
c The degrees of nodes 1 to 100, respectively, are as follows 
c [43, 34, 32, 32, 30, 25, 23, 22, 19, 19, 17, 17, 16, 15, 15, 13, 13, 13, 12, 12, 12, 12, 12, 12, 11, 11, 
c  10, 10, 10, 10, 10, 9, 9, 9, 9, 9, 9, 9, 8, 8, 8, 8, 8, 7, 7, 7, 7, 7, 7, 7, 7, 
c  7, 7, 6, 6, 6, 6, 6, 6, 6, 6, 6, 6, 6, 6, 6, 6, 6, 6, 6, 6, 6, 6, 5, 5, 5, 
c  5, 5, 5, 5, 5, 5, 5, 5, 5, 5, 5, 5, 5, 5, 5, 5, 5, 5, 5, 5, 5, 5, 5, 5] 
c  
p edge 100 485 2
e 1 2
e 1 3
e 1 4
e 1 5
e 1 6
e 1 8
e 1 9
e 1 12
e 1 14
e 1 15
e 1 17
e 1 18
e 1 19
e 1 20
e 1 23
e 1 29
e 1 34
e 1 35
e 1 38
e 1 39
e 1 42
e 1 44
e 1 47
e 1 50
e 1 51
e 1 54
e 1 55
e 1 56
e 1 57
e 1 60
e 1 61
e 1 62
e 1 70
e 1 72
e 1 76
e 1 78
e 1 81
e 1 82
e 1 83
e 1 90
e 1 91
e 1 94
e 1 99
e 2 3
e 2 4
e 2 5
e 2 6
e 2 8
e 2 13
e 2 14
e 2 20
e 2 22
e 2 23
e 2 25
e 2 28
e 2 30
e 2 32
e 2 33
e 2 36
e 2 37
e 2 44
e 2 45
e 2 46
e 2 48
e 2 49
e 2 54
e 2 55
e 2 56
e 2 57
e 2 76
e 2 77
e 2 80
e 2 81
e 2 86
e 2 87
e 2 97
e 3 4
e 3 5
e 3 6
e 3 7
e 3 8
e 3 9
e 3 10
e 3 11
e 3 12
e 3 14
e 3 15
e 3 16
e 3 18
e 3 19
e 3 23
e 3 26
e 3 32
e 3 33
e 3 36
e 3 38
e 3 40
e 3 42
e 3 54
e 3 55
e 3 64
e 3 69
e 3 81
e 3 89
e 3 90
e 3 98
e 4 5
e 4 6
e 4 7
e 4 9
e 4 11
e 4 15
e 4 21
e 4 24
e 4 27
e 4 29
e 4 30
e 4 31
e 4 32
e 4 38
e 4 39
e 4 41
e 4 44
e 4 46
e 4 50
e 4 52
e 4 59
e 4 74
e 4 77
e 4 82
e 4 84
e 4 86
e 4 91
e 4 97
e 4 98
e 5 6
e 5 7
e 5 8
e 5 9
e 5 11
e 5 13
e 5 19
e 5 20
e 5 21
e 5 25
e 5 28
e 5 32
e 5 39
e 5 46
e 5 49
e 5 50
e 5 52
e 5 54
e 5 73
e 5 75
e 5 78
e 5 81
e 5 84
e 5 89
e 5 93
e 5 95
e 6 8
e 6 9
e 6 12
e 6 17
e 6 18
e 6 27
e 6 28
e 6 29
e 6 32
e 6 34
e 6 40
e 6 41
e 6 49
e 6 53
e 6 68
e 6 76
e 6 82
e 6 94
e 6 97
e 6 98
e 7 9
e 7 10
e 7 17
e 7 25
e 7 32
e 7 37
e 7 40
e 7 47
e 7 48
e 7 58
e 7 62
e 7 64
e 7 65
e 7 66
e 7 67
e 7 68
e 7 69
e 7 72
e 7 75
e 7 83
e 8 10
e 8 11
e 8 12
e 8 16
e 8 19
e 8 20
e 8 22
e 8 25
e 8 26
e 8 29
e 8 35
e 8 37
e 8 38
e 8 51
e 8 57
e 8 69
e 8 80
e 9 11
e 9 13
e 9 14
e 9 16
e 9 17
e 9 20
e 9 21
e 9 41
e 9 44
e 9 52
e 9 57
e 9 84
e 9 99
e 10 11
e 10 12
e 10 15
e 10 23
e 10 27
e 10 36
e 10 42
e 10 43
e 10 51
e 10 57
e 10 59
e 10 73
e 10 85
e 10 88
e 10 92
e 10 93
e 11 14
e 11 15
e 11 16
e 11 17
e 11 22
e 11 23
e 11 25
e 11 31
e 11 39
e 11 55
e 11 78
e 12 13
e 12 16
e 12 27
e 12 28
e 12 33
e 12 35
e 12 36
e 12 39
e 12 64
e 12 66
e 12 68
e 12 75
e 13 19
e 13 24
e 13 26
e 13 30
e 13 45
e 13 46
e 13 48
e 13 49
e 13 60
e 13 62
e 13 63
e 13 80
e 14 24
e 14 28
e 14 31
e 14 54
e 14 65
e 14 66
e 14 74
e 14 81
e 14 95
e 14 100
e 15 18
e 15 26
e 15 35
e 15 47
e 15 53
e 15 56
e 15 66
e 15 88
e 15 92
e 15 97
e 16 33
e 16 38
e 16 53
e 16 58
e 16 66
e 16 67
e 16 86
e 16 92
e 17 21
e 17 22
e 17 42
e 17 61
e 17 72
e 17 82
e 17 84
e 17 87
e 18 22
e 18 42
e 18 47
e 18 56
e 18 65
e 18 72
e 18 76
e 18 78
e 18 94
e 19 26
e 19 30
e 19 32
e 19 45
e 19 48
e 19 50
e 19 74
e 20 33
e 20 34
e 20 39
e 20 69
e 20 75
e 20 79
e 20 98
e 21 25
e 21 34
e 21 37
e 21 55
e 21 76
e 21 77
e 21 79
e 21 82
e 22 27
e 22 32
e 22 35
e 22 40
e 22 64
e 22 87
e 22 95
e 23 24
e 23 52
e 23 59
e 23 63
e 23 79
e 23 95
e 23 96
e 24 29
e 24 40
e 24 41
e 24 46
e 24 70
e 24 79
e 24 83
e 24 91
e 25 36
e 25 45
e 25 56
e 25 74
e 25 89
e 26 43
e 26 61
e 26 71
e 26 75
e 26 90
e 26 99
e 27 29
e 27 44
e 27 61
e 27 71
e 27 95
e 28 34
e 28 52
e 28 59
e 28 74
e 28 96
e 29 47
e 29 50
e 29 88
e 29 93
e 30 31
e 30 34
e 30 58
e 30 68
e 30 72
e 30 99
e 31 41
e 31 63
e 31 64
e 31 78
e 31 84
e 31 93
e 32 63
e 33 67
e 33 85
e 33 88
e 33 94
e 34 45
e 34 71
e 34 89
e 35 41
e 35 61
e 35 65
e 35 90
e 36 60
e 36 73
e 36 86
e 36 90
e 37 47
e 37 51
e 37 69
e 37 80
e 37 96
e 38 43
e 38 65
e 38 70
e 38 85
e 39 86
e 39 100
e 40 53
e 40 83
e 40 100
e 41 59
e 41 62
e 42 88
e 42 89
e 42 97
e 43 65
e 43 68
e 43 73
e 43 92
e 43 94
e 44 85
e 44 98
e 45 63
e 45 77
e 46 48
e 46 60
e 47 51
e 48 49
e 48 71
e 49 71
e 49 93
e 50 58
e 50 60
e 51 77
e 51 80
e 52 62
e 52 67
e 53 64
e 53 70
e 53 92
e 54 100
e 55 58
e 56 87
e 57 100
e 58 67
e 59 79
e 60 68
e 61 85
e 62 87
e 63 91
e 66 83
e 67 91
e 69 70
e 70 96
e 71 99
e 72 73
e 73 96
n 10 1
n 16 1
n 18 1
n 31 2
n 32 2
n 33 1
n 67 1
n 70 2
n 80 2
n 90 1
